\ Model Linearization Heuristic_copy
\ LP format - for model browsing. Use MPS format to capture full model detail.
Maximize
 
Subject To
 R6438: u[8820] >= 0.3896796033043068
 R6439: u[8830] >= 0.3777689909158665
 R6440: u[8840] >= 0.4036216192504127
 R6441: u[8850] >= 0.4295043007799597
 R6442: u[8860] >= 0.4084824254049231
 R6443: u[8870] >= 0.3759430730585809
 R6444: u[8880] >= 0.2877881220870032
 R8524: u[8820] + u[8830] + u[8840] + u[8850] + u[8860] + u[8870] + u[8880]
   + u[8890] + u[8900] <= 3
Bounds
 u[8820] free
 u[8830] free
 u[8840] free
 u[8850] free
 u[8860] free
 u[8870] free
 u[8880] free
 u[8890] >= 0.1833333333333333
 u[8900] >= 0.1833333333333333
End
